; PUSH cw_3 DUP3 ADD PUSH cw_2 SWAP1 => PUSH cw_2 PUSH cw_3 DUP4 ADD
(set-option :produce-proofs true)
; 
(set-info :status unknown)
(declare-fun storage_t ((_ BitVec 256) (_ BitVec 256) (_ BitVec 256) (_ BitVec 256) Int (_ BitVec 256)) (_ BitVec 256))
(declare-fun w_2 () (_ BitVec 256))
(declare-fun w_3 () (_ BitVec 256))
(declare-fun storage_s ((_ BitVec 256) (_ BitVec 256) (_ BitVec 256) (_ BitVec 256) Int (_ BitVec 256)) (_ BitVec 256))
(declare-fun exc_halt_t (Int) Bool)
(declare-fun exc_halt_s (Int) Bool)
(declare-fun sc_t (Int) (_ BitVec 6))
(declare-fun stack_t ((_ BitVec 256) (_ BitVec 256) (_ BitVec 256) (_ BitVec 256) Int (_ BitVec 6)) (_ BitVec 256))
(declare-fun stack_s ((_ BitVec 256) (_ BitVec 256) (_ BitVec 256) (_ BitVec 256) Int (_ BitVec 6)) (_ BitVec 256))
(declare-fun sc_s (Int) (_ BitVec 6))
(declare-fun used_gas_t ((_ BitVec 256) (_ BitVec 256) (_ BitVec 256) (_ BitVec 256) Int) Int)
(declare-fun used_gas_s ((_ BitVec 256) (_ BitVec 256) (_ BitVec 256) (_ BitVec 256) Int) Int)
(assert
 (exists ((x_0 (_ BitVec 256)) (x_1 (_ BitVec 256)) )(let (($x2251 (forall ((w (_ BitVec 256)) )(let ((?x5737 (storage_t x_0 x_1 w_3 w_2 4 w)))
 (let ((?x3481 (storage_s x_0 x_1 w_3 w_2 5 w)))
 (= ?x3481 ?x5737))))
 ))
 (let (($x3723 (exc_halt_t 4)))
 (let (($x11317 (exc_halt_s 5)))
 (let (($x7362 (= $x11317 $x3723)))
 (let (($x4540 (forall ((n (_ BitVec 6)) )(let ((?x1098 (sc_t 4)))
 (let (($x3316 (bvsle ?x1098 n)))
 (let ((?x1956 (stack_t x_0 x_1 w_3 w_2 4 n)))
 (let ((?x795 (stack_s x_0 x_1 w_3 w_2 5 n)))
 (let (($x2277 (= ?x795 ?x1956)))
 (or $x2277 $x3316)))))))
 ))
 (let ((?x1098 (sc_t 4)))
 (let ((?x4319 (sc_s 5)))
 (let (($x11451 (= ?x4319 ?x1098)))
 (let ((?x5980 (used_gas_t x_0 x_1 w_3 w_2 0)))
 (let ((?x862 (used_gas_s x_0 x_1 w_3 w_2 0)))
 (let (($x8728 (= ?x862 ?x5980)))
 (let (($x7285 (forall ((w (_ BitVec 256)) )(let ((?x11587 (storage_t x_0 x_1 w_3 w_2 0 w)))
 (let ((?x3209 (storage_s x_0 x_1 w_3 w_2 0 w)))
 (= ?x3209 ?x11587))))
 ))
 (let (($x56 (exc_halt_t 0)))
 (let (($x57 (exc_halt_s 0)))
 (let (($x58 (= $x57 $x56)))
 (let (($x6535 (forall ((n (_ BitVec 6)) )(let ((?x8655 (stack_t x_0 x_1 w_3 w_2 0 n)))
 (let ((?x10028 (stack_s x_0 x_1 w_3 w_2 0 n)))
 (let (($x11300 (= ?x10028 ?x8655)))
 (let ((?x63 (sc_t 0)))
 (let (($x6686 (bvsle ?x63 n)))
 (or $x6686 $x11300)))))))
 ))
 (let ((?x63 (sc_t 0)))
 (let ((?x72 (sc_s 0)))
 (let (($x73 (= ?x72 ?x63)))
 (let (($x1589 (= $x3723 (or (exc_halt_t 3) (not (bvsle (_ bv0 6) (bvadd (_ bv62 6) (sc_t 3))))))))
 (let (($x6512 (forall ((w (_ BitVec 256)) )(let ((?x6121 (storage_t x_0 x_1 w_3 w_2 3 w)))
 (let ((?x5737 (storage_t x_0 x_1 w_3 w_2 4 w)))
 (= ?x5737 ?x6121))))
 ))
 (let (($x1139 (forall ((n (_ BitVec 6)) )(let ((?x6801 (stack_t x_0 x_1 w_3 w_2 3 n)))
 (let ((?x1956 (stack_t x_0 x_1 w_3 w_2 4 n)))
 (or (bvsle (bvadd (_ bv62 6) (sc_t 3)) n) (= ?x1956 ?x6801)))))
 ))
 (let (($x3589 (= (used_gas_t x_0 x_1 w_3 w_2 4) (+ 3 (used_gas_t x_0 x_1 w_3 w_2 3)))))
 (let ((?x6438 (sc_t 3)))
 (let ((?x7132 (bvadd (_ bv63 6) ?x6438)))
 (let ((?x8501 (stack_t x_0 x_1 w_3 w_2 3 ?x7132)))
 (let (($x11683 (= (stack_t x_0 x_1 w_3 w_2 4 (bvadd (_ bv63 6) ?x1098)) (bvadd ?x8501 (stack_t x_0 x_1 w_3 w_2 3 (bvadd (_ bv62 6) ?x6438))))))
 (let (($x10658 (not (= ((_ extract 6 6) (bvadd (_ bv1 7) (concat (_ bv0 1) (sc_t 2)))) (_ bv0 1)))))
 (let (($x5252 (exc_halt_t 2)))
 (let (($x6783 (exc_halt_t 3)))
 (let (($x8254 (forall ((w (_ BitVec 256)) )(let ((?x2360 (storage_t x_0 x_1 w_3 w_2 2 w)))
 (let ((?x6121 (storage_t x_0 x_1 w_3 w_2 3 w)))
 (= ?x6121 ?x2360))))
 ))
 (let (($x8900 (forall ((n (_ BitVec 6)) )(let ((?x5107 (stack_t x_0 x_1 w_3 w_2 2 n)))
 (let ((?x6801 (stack_t x_0 x_1 w_3 w_2 3 n)))
 (or (= ?x6801 ?x5107) (bvsle (bvadd (_ bv60 6) (sc_t 2)) n)))))
 ))
 (let (($x10750 (= ?x6438 (bvadd (_ bv1 6) (sc_t 2)))))
 (let ((?x7233 (used_gas_t x_0 x_1 w_3 w_2 3)))
 (let (($x5360 (= (stack_t x_0 x_1 w_3 w_2 3 (bvadd (_ bv63 6) (sc_t 2))) (stack_t x_0 x_1 w_3 w_2 2 (bvadd (_ bv63 6) (sc_t 2))))))
 (let (($x8867 (= (stack_t x_0 x_1 w_3 w_2 3 (bvadd (_ bv62 6) (sc_t 2))) (stack_t x_0 x_1 w_3 w_2 2 (bvadd (_ bv62 6) (sc_t 2))))))
 (let (($x16 (= (stack_t x_0 x_1 w_3 w_2 3 (bvadd (_ bv61 6) (sc_t 2))) (stack_t x_0 x_1 w_3 w_2 2 (bvadd (_ bv61 6) (sc_t 2))))))
 (let ((?x2714 (sc_t 2)))
 (let ((?x4673 (bvadd (_ bv60 6) ?x2714)))
 (let ((?x7610 (stack_t x_0 x_1 w_3 w_2 2 ?x4673)))
 (let (($x3508 (exc_halt_t 1)))
 (let (($x1541 (or $x3508 (not (= ((_ extract 6 6) (bvadd (_ bv1 7) (concat (_ bv0 1) (sc_t 1)))) (_ bv0 1))))))
 (let (($x514 (forall ((w (_ BitVec 256)) )(let ((?x4100 (storage_t x_0 x_1 w_3 w_2 1 w)))
 (let ((?x2360 (storage_t x_0 x_1 w_3 w_2 2 w)))
 (= ?x2360 ?x4100))))
 ))
 (let (($x5047 (forall ((n (_ BitVec 6)) )(let ((?x5478 (stack_t x_0 x_1 w_3 w_2 1 n)))
 (let ((?x5107 (stack_t x_0 x_1 w_3 w_2 2 n)))
 (let ((?x8347 (sc_t 1)))
 (let (($x866 (bvsle ?x8347 n)))
 (or $x866 (= ?x5107 ?x5478)))))))
 ))
 (let ((?x4939 (used_gas_t x_0 x_1 w_3 w_2 2)))
 (let (($x3632 (= $x3508 (or $x56 (not (= ((_ extract 6 6) (bvadd (_ bv1 7) (concat (_ bv0 1) ?x63))) (_ bv0 1)))))))
 (let (($x9548 (forall ((w (_ BitVec 256)) )(let ((?x11587 (storage_t x_0 x_1 w_3 w_2 0 w)))
 (let ((?x4100 (storage_t x_0 x_1 w_3 w_2 1 w)))
 (= ?x4100 ?x11587))))
 ))
 (let (($x2450 (forall ((n (_ BitVec 6)) )(let ((?x63 (sc_t 0)))
 (let (($x6686 (bvsle ?x63 n)))
 (let ((?x8655 (stack_t x_0 x_1 w_3 w_2 0 n)))
 (let ((?x5478 (stack_t x_0 x_1 w_3 w_2 1 n)))
 (or (= ?x5478 ?x8655) $x6686))))))
 ))
 (let ((?x8347 (sc_t 1)))
 (let (($x7135 (= ?x8347 (bvadd (_ bv1 6) ?x63))))
 (let (($x7471 (= $x11317 (or (exc_halt_s 4) (not (bvsle (_ bv0 6) (bvadd (_ bv62 6) (sc_s 4))))))))
 (let (($x911 (forall ((w (_ BitVec 256)) )(let ((?x8919 (storage_s x_0 x_1 w_3 w_2 4 w)))
 (let ((?x3481 (storage_s x_0 x_1 w_3 w_2 5 w)))
 (= ?x3481 ?x8919))))
 ))
 (let (($x5988 (forall ((n (_ BitVec 6)) )(let ((?x4305 (sc_s 4)))
 (let ((?x9107 (bvadd (_ bv62 6) ?x4305)))
 (let (($x9713 (bvsle ?x9107 n)))
 (let ((?x10761 (stack_s x_0 x_1 w_3 w_2 4 n)))
 (let ((?x795 (stack_s x_0 x_1 w_3 w_2 5 n)))
 (or (= ?x795 ?x10761) $x9713)))))))
 ))
 (let (($x11505 (= (used_gas_s x_0 x_1 w_3 w_2 5) (+ 3 (used_gas_s x_0 x_1 w_3 w_2 4)))))
 (let (($x6753 (= (stack_s x_0 x_1 w_3 w_2 5 (bvadd (_ bv62 6) ?x4319)) (stack_s x_0 x_1 w_3 w_2 4 (bvadd (_ bv63 6) (sc_s 4))))))
 (let (($x1012 (= (stack_s x_0 x_1 w_3 w_2 5 (bvadd (_ bv63 6) ?x4319)) (stack_s x_0 x_1 w_3 w_2 4 (bvadd (_ bv62 6) (sc_s 4))))))
 (let (($x5846 (not (= ((_ extract 6 6) (bvadd (_ bv1 7) (concat (_ bv0 1) (sc_s 3)))) (_ bv0 1)))))
 (let (($x292 (exc_halt_s 3)))
 (let (($x7172 (exc_halt_s 4)))
 (let (($x8175 (forall ((w (_ BitVec 256)) )(let ((?x5616 (storage_s x_0 x_1 w_3 w_2 3 w)))
 (let ((?x8919 (storage_s x_0 x_1 w_3 w_2 4 w)))
 (= ?x8919 ?x5616))))
 ))
 (let (($x2855 (forall ((n (_ BitVec 6)) )(let ((?x5431 (stack_s x_0 x_1 w_3 w_2 3 n)))
 (let ((?x10761 (stack_s x_0 x_1 w_3 w_2 4 n)))
 (or (bvsle (sc_s 3) n) (= ?x10761 ?x5431)))))
 ))
 (let ((?x4305 (sc_s 4)))
 (let (($x2984 (= ?x4305 (bvadd (_ bv1 6) (sc_s 3)))))
 (let ((?x4555 (used_gas_s x_0 x_1 w_3 w_2 4)))
 (let (($x5862 (= $x292 (or (exc_halt_s 2) (not (bvsle (_ bv0 6) (bvadd (_ bv62 6) (sc_s 2))))))))
 (let (($x7244 (forall ((w (_ BitVec 256)) )(let ((?x3196 (storage_s x_0 x_1 w_3 w_2 2 w)))
 (let ((?x5616 (storage_s x_0 x_1 w_3 w_2 3 w)))
 (= ?x5616 ?x3196))))
 ))
 (let (($x2901 (forall ((n (_ BitVec 6)) )(let ((?x864 (stack_s x_0 x_1 w_3 w_2 2 n)))
 (let ((?x5431 (stack_s x_0 x_1 w_3 w_2 3 n)))
 (let ((?x218 (sc_s 2)))
 (let ((?x5834 (bvadd (_ bv62 6) ?x218)))
 (let (($x431 (bvsle ?x5834 n)))
 (or $x431 (= ?x5431 ?x864))))))))
 ))
 (let ((?x218 (sc_s 2)))
 (let ((?x5211 (bvadd (_ bv63 6) ?x218)))
 (let ((?x275 (sc_s 3)))
 (let (($x10402 (= ?x275 ?x5211)))
 (let ((?x1162 (used_gas_s x_0 x_1 w_3 w_2 3)))
 (let ((?x10226 (stack_s x_0 x_1 w_3 w_2 2 ?x5211)))
 (let (($x6281 (= (stack_s x_0 x_1 w_3 w_2 3 (bvadd (_ bv63 6) ?x275)) (bvadd ?x10226 (stack_s x_0 x_1 w_3 w_2 2 (bvadd (_ bv62 6) ?x218))))))
 (let (($x3052 (not (bvsle (_ bv0 6) (bvadd (_ bv61 6) (sc_s 1))))))
 (let (($x189 (exc_halt_s 1)))
 (let (($x11053 (or $x189 $x3052 (not (= ((_ extract 6 6) (bvadd (_ bv1 7) (concat (_ bv0 1) (sc_s 1)))) (_ bv0 1))))))
 (let (($x247 (exc_halt_s 2)))
 (let (($x1700 (= $x247 $x11053)))
 (let (($x11737 (forall ((w (_ BitVec 256)) )(let ((?x11580 (storage_s x_0 x_1 w_3 w_2 1 w)))
 (let ((?x3196 (storage_s x_0 x_1 w_3 w_2 2 w)))
 (= ?x3196 ?x11580))))
 ))
 (let (($x1652 (forall ((n (_ BitVec 6)) )(let ((?x8374 (stack_s x_0 x_1 w_3 w_2 1 n)))
 (let ((?x864 (stack_s x_0 x_1 w_3 w_2 2 n)))
 (let ((?x154 (sc_s 1)))
 (let ((?x8937 (bvadd (_ bv61 6) ?x154)))
 (let (($x39 (bvsle ?x8937 n)))
 (or $x39 (= ?x864 ?x8374))))))))
 ))
 (let (($x7086 (= ?x218 (bvadd (_ bv1 6) (sc_s 1)))))
 (let ((?x11022 (used_gas_s x_0 x_1 w_3 w_2 2)))
 (let (($x9639 (= (stack_s x_0 x_1 w_3 w_2 2 (bvadd (_ bv63 6) (sc_s 1))) (stack_s x_0 x_1 w_3 w_2 1 (bvadd (_ bv63 6) (sc_s 1))))))
 (let (($x1070 (= (stack_s x_0 x_1 w_3 w_2 2 (bvadd (_ bv62 6) (sc_s 1))) (stack_s x_0 x_1 w_3 w_2 1 (bvadd (_ bv62 6) (sc_s 1))))))
 (let ((?x154 (sc_s 1)))
 (let ((?x8937 (bvadd (_ bv61 6) ?x154)))
 (let ((?x3974 (stack_s x_0 x_1 w_3 w_2 1 ?x8937)))
 (let (($x4791 (= $x189 (or $x57 (not (= ((_ extract 6 6) (bvadd (_ bv1 7) (concat (_ bv0 1) ?x72))) (_ bv0 1)))))))
 (let (($x7591 (forall ((w (_ BitVec 256)) )(let ((?x3209 (storage_s x_0 x_1 w_3 w_2 0 w)))
 (let ((?x11580 (storage_s x_0 x_1 w_3 w_2 1 w)))
 (= ?x11580 ?x3209))))
 ))
 (let (($x2091 (forall ((n (_ BitVec 6)) )(let ((?x10028 (stack_s x_0 x_1 w_3 w_2 0 n)))
 (let ((?x8374 (stack_s x_0 x_1 w_3 w_2 1 n)))
 (let ((?x72 (sc_s 0)))
 (let (($x10370 (bvsle ?x72 n)))
 (or $x10370 (= ?x8374 ?x10028)))))))
 ))
 (let (($x5483 (= ?x154 (bvadd (_ bv1 6) ?x72))))
 (let (($x7875 (forall ((w (_ BitVec 256)) )(let ((?x3209 (storage_s x_0 x_1 w_3 w_2 0 w)))
 (= ?x3209 (_ bv0 256))))
 ))
 (let (($x2037 (= ?x862 0)))
 (let (($x11124 (not $x57)))
 (let (($x2035 (= (stack_s x_0 x_1 w_3 w_2 0 (_ bv1 6)) x_1)))
 (let (($x9540 (= (stack_s x_0 x_1 w_3 w_2 0 (_ bv0 6)) x_0)))
 (let (($x6396 (= ?x72 (_ bv2 6))))
 (and $x6396 $x9540 $x2035 $x11124 $x2037 $x7875 (= (stack_s x_0 x_1 w_3 w_2 1 ?x72) w_3) (= (used_gas_s x_0 x_1 w_3 w_2 1) (+ 3 ?x862)) $x5483 $x2091 $x7591 $x4791 (= ?x10226 ?x3974) (= (stack_s x_0 x_1 w_3 w_2 2 ?x8937) ?x3974) $x1070 $x9639 (= ?x11022 (+ 3 (used_gas_s x_0 x_1 w_3 w_2 1))) $x7086 $x1652 $x11737 $x1700 $x6281 (= ?x1162 (+ 3 ?x11022)) $x10402 $x2901 $x7244 $x5862 (= (stack_s x_0 x_1 w_3 w_2 4 ?x275) w_2) (= ?x4555 (+ 3 ?x1162)) $x2984 $x2855 $x8175 (= $x7172 (or $x292 $x5846)) $x1012 $x6753 $x11505 (= ?x4319 ?x4305) $x5988 $x911 $x7471 (= (stack_t x_0 x_1 w_3 w_2 1 ?x63) w_2) (= (used_gas_t x_0 x_1 w_3 w_2 1) (+ 3 ?x5980)) $x7135 $x2450 $x9548 $x3632 (= (stack_t x_0 x_1 w_3 w_2 2 ?x8347) w_3) (= ?x4939 (+ 3 (used_gas_t x_0 x_1 w_3 w_2 1))) (= ?x2714 (bvadd (_ bv1 6) ?x8347)) $x5047 $x514 (= $x5252 $x1541) (= ?x8501 ?x7610) (= (stack_t x_0 x_1 w_3 w_2 3 ?x4673) ?x7610) $x16 $x8867 $x5360 (= ?x7233 (+ 3 ?x4939)) $x10750 $x8900 $x8254 (= $x6783 (or $x5252 (not (bvsle (_ bv0 6) ?x4673)) $x10658)) $x11683 $x3589 (= ?x1098 ?x7132) $x1139 $x6512 $x1589 $x73 $x6535 $x58 $x7285 $x8728 (not (and $x11451 $x4540 $x7362 $x2251))))))))))))))))))))))))))))))))))))))))))))))))))))))))))))))))))))))))))))))))))))))))))))))))))))))
 )
(check-sat)
(get-proof)
